data;

set N := a b c d;

param LMAX := 5;

param G :=
  [a, *] a 0 b 0 c 1 d 1
  [b, *] a 0 b 0 c 1 d 1
  [c, *] a 1 b 1 c 0 d 0
  [d, *] a 1 b 1 c 0 d 0;

param L :=
  [a, *] a 0 b 0 c 2 d 1
  [b, *] a 0 b 0 c 4 d 5
  [c, *] a 2 b 4 c 0 d 0
  [d, *] a 1 b 5 c 0 d 0;

set OD := (a, b) (c, d);

param DEMAND := [a, b] 4 [c, d] 7;

end;
